2,1,7,3,6,1,3,1,8,2,5,2,10,2,4,1,9,4,1,1;5,1,7,4,9,2,3,3,8,5,4,2,6,5,10,6,1,2,2,5;7,1,8,1,9,1,10,1,6,3,3,4,5,7,2,4,1,3,4,7;7,2,2,2,3,2,8,3,5,4,6,4,10,4,4,4,9,7,1,4;7,5,8,4,9,3,5,5,4,3,2,3,3,6,10,7,6,7,1,5;5,3,7,7,8,6,3,5,9,6,4,6,2,6,1,6,10,10,6,10;6,2,7,8,10,5,3,7,4,5,8,8,5,10,1,7,2,8,9,9;7,6,5,6,9,5,3,8,10,8,8,9,1,8,4,9,2,9,6,9;10,3,5,8,7,9,6,6,3,10,2,7,1,9,8,10,4,10,9,10;8,7,5,9,7,10,9,8,3,9,6,8,4,8,10,9,1,10,2,10;
